16,7	0,0	8,1	12,9	0,0	0,0	0,0	0,0	0,0	17,4
7,1	8,1	0,0	18,3	15,6	0,0	0,0	13,6	0,0	0,0
0,0	0,0	11,7	0,0	19,9	10,9	0,0	0,0	6,6	0,0
6,7	0,0	16,5	0,0	0,0	0,0	14,9	0,0	0,0	0,0
0,0	9,3	0,0	8,6	12,2	0,0	0,0	14,4	0,0	0,0
0,0	15,4	14,8	0,0	18,3	13,1	0,0	0,0	16,7	0,0
0,0	18,9	0,0	7,6	0,0	0,0	17,5	0,0	0,0	14,8
19,9	0,0	16,6	0,0	0,0	0,0	0,0	0,0	0,0	14,7
0,0	9,4	0,0	16,1	13,2	0,0	0,0	5,3	0,0	0,0
0,0	0,0	12,3	0,0	0,0	19,6	9,8	0,0	0,0	8,2
									
4,0	2,9	3,2	3,7	2,8	4,4	2,7	4,9	3,9	4,3
